NAME : rat195.854.tour
COMMENT : Length = 854
COMMENT : Found by LKH [Keld Helsgaun] Wed May 29 17:05:43 2013
TYPE : TOUR
DIMENSION : 39
TOUR_SECTION
3
4
8
24
36
37
50
63
64
76
88
102
116
127
128
141
154
152
180
194
193
190
175
174
171
158
133
120
107
95
83
82
67
54
56
45
30
16
15
-1
EOF
